c read Graph
c width = 3
c time = 14 ms
c width = 3
c time = 4942 ms
s td 9 4 12
b 1 1 2 5
b 2 2 3 5 6
b 3 3 5 6 10
b 4 3 6 7 10
b 5 3 7 8 11
b 6 3 7 10 11
b 7 8 11 12
b 8 5 9 10
b 9 3 4 8
1 2
2 3
3 8
3 4
4 6
5 9
5 7
5 6
